
===== New CPLEX run =====
Instance: /home/yorig/tuner/mpils-tests/instances/miplib/easy/lotsize.mps
Config: /scratch/yorig/mpils-results-grid-seconds-5-no-mip-start/easy/16proc/seed-3/4_lotsize_seed-3_20260502_223218/expansion/config_param_CPXPARAM_MIP_Limits_AggForCut_5_iter_3.prm
========================

Selected objective sense:  MINIMIZE
Selected objective  name:  R1921
Selected RHS        name:  B
Selected bound      name:  BOUND
Version identifier: 22.1.2.0 | 2024-11-26 | 0edbb82fd
CPXPARAM_Threads                                 8
CPXPARAM_Parallel                                1
CPXPARAM_MIP_Cuts_Cliques                        2
CPXPARAM_MIP_Cuts_FlowCovers                     2
CPXPARAM_MIP_Cuts_Implied                        1
CPXPARAM_MIP_Limits_GomoryCand                   800
CPXPARAM_MIP_Cuts_Gomory                         -1
CPXPARAM_MIP_Cuts_PathCut                        1
CPXPARAM_MIP_Cuts_MIRCut                         2
CPXPARAM_MIP_Cuts_Disjunctive                    2
CPXPARAM_MIP_Limits_AggForCut                    5
CPXPARAM_Emphasis_MIP                            1
CPXPARAM_MIP_Strategy_BBInterval                 4
CPXPARAM_TimeLimit                               5
Tried aggregator 1 time.
MIP Presolve eliminated 595 rows and 0 columns.
MIP Presolve added 1190 rows and 0 columns.
MIP Presolve modified 10 coefficients.
Reduced MIP has 2515 rows, 2985 columns, and 7755 nonzeros.
Reduced MIP has 1195 binaries, 0 generals, 0 SOSs, and 0 indicators.
Presolve time = 0.00 sec. (4.53 ticks)
Probing fixed 0 vars, tightened 5487 bounds.
Probing time = 0.01 sec. (18.38 ticks)
Tried aggregator 2 times.
Detecting symmetries...
MIP Presolve modified 1206 coefficients.
Aggregator did 10 substitutions.
Reduced MIP has 2505 rows, 2975 columns, and 7735 nonzeros.
Reduced MIP has 1195 binaries, 0 generals, 0 SOSs, and 0 indicators.
Presolve time = 0.00 sec. (6.66 ticks)
Probing fixed 0 vars, tightened 2401 bounds.
Probing time = 0.00 sec. (6.41 ticks)
Clique table members: 190.
MIP emphasis: integer feasibility.
MIP search method: dynamic search.
Parallel mode: deterministic, using up to 8 threads.
Root relaxation solution time = 0.01 sec. (9.71 ticks)

        Nodes                                         Cuts/
   Node  Left     Objective  IInf  Best Integer    Best Bound    ItCnt     Gap

      0     0   348385.3466   472                 348385.3466      882         
      0     0   583577.4049   435                   Cuts: 726     1819         
      0     0   818579.8934   688                   Cuts: 726     2675         
*     0+    0                       1.01740e+07   818579.8934            91.95%
*     0+    0                      7973370.0000   818579.8934            89.73%
      0     0   974539.2419   666  7973370.0000     Cuts: 726     3398   87.78%
Detecting symmetries...
      0     2   974539.2419   666  7973370.0000   974539.2419     3398   87.78%
Elapsed time = 0.47 sec. (630.31 ticks, tree = 0.02 MB, solutions = 2)
    474   390  1013815.5363   526  7973370.0000   976637.7432     9399   87.75%
   1133   966  1104928.5440   404  7973370.0000   976637.7432    17994   87.75%

Performing restart 1

Repeating presolve.
Tried aggregator 1 time.
MIP Presolve modified 1154 coefficients.
Reduced MIP has 2505 rows, 2975 columns, and 7735 nonzeros.
Reduced MIP has 1195 binaries, 0 generals, 0 SOSs, and 0 indicators.
Presolve time = 0.00 sec. (3.78 ticks)
Tried aggregator 1 time.
MIP Presolve modified 1001 coefficients.
Reduced MIP has 2505 rows, 2975 columns, and 7735 nonzeros.
Reduced MIP has 1195 binaries, 0 generals, 0 SOSs, and 0 indicators.
Presolve time = 0.00 sec. (5.12 ticks)
Represolve time = 0.02 sec. (19.36 ticks)
   1703     0  1091163.9310   695  7973370.0000     Cuts: 726    34388   86.31%
   1703     0  1175046.1293   659  7973370.0000     Cuts: 726    35172   85.26%
   1703     0  1215162.5533   681  7973370.0000     Cuts: 726    35856   84.76%
   1703     2  1215162.5533   681  7973370.0000  1215162.5533    35856   84.76%
   1714    13  1223213.8090   606  7973370.0000  1215319.4797    36262   84.76%
   1744    42  1232053.9041   587  7973370.0000  1215319.4797    36931   84.76%
   1753    47  1287788.8609   622  7973370.0000  1215876.2835    38789   84.75%
   1769    57  1275441.3019   743  7973370.0000  1217112.7105    44721   84.74%
   1830    97  1287702.2613   695  7973370.0000  1221679.4961    59393   84.68%
   1932   156  1290870.3397   662  7973370.0000  1221679.4961    64429   84.68%
   2918  1019  1378373.9945   426  7973370.0000  1221679.4961   102496   84.68%
Elapsed time = 4.36 sec. (5465.81 ticks, tree = 1.35 MB, solutions = 2)
*  3445+ 1349                      3659876.0000  1221679.4961            66.62%
*  3447+ 1249                      3130479.0000  1221679.4961            60.97%
*  3459+ 1249                      2940267.0000  1221679.4961            58.45%
*  3487+ 1459                      2931441.0000  1221679.4961            58.32%
*  3499+ 1459                      2856291.0000  1221679.4961            57.23%
*  3603+ 1404                      2825531.0000  1221679.4961            56.76%
*  3762+ 1666                      2057997.0000  1221679.4961            40.64%
*  3810+ 1808                      1991916.0000  1221679.4961            38.67%
*  3814+ 1808                      1978861.0000  1221679.4961            38.26%
*  3834+ 1804                      1947570.0000  1221679.4961            37.27%
*  3847+ 1803                      1942727.0000  1221679.4961            37.12%
*  3858+ 1803                      1942326.0000  1221679.4961            37.10%

Clique cuts applied:  1
Cover cuts applied:  25
Implied bound cuts applied:  12
Flow cuts applied:  770
Mixed integer rounding cuts applied:  959
Flow path cuts applied:  62
Multi commodity flow cuts applied:  31
Lift and project cuts applied:  18
Disjunctive cuts applied:  0
Cone linearizations applied:  0

Root node processing (before b&c):
  Real time             =    0.47 sec. (628.66 ticks)
Parallel b&c, 8 threads:
  Real time             =    4.54 sec. (5621.86 ticks)
  Sync time (average)   =    0.30 sec.
  Wait time (average)   =    0.00 sec.
                          ------------
Total (root+branch&cut) =    5.00 sec. (6250.52 ticks)
Gap: 37.1%
Upper bound: 1.94233e+06
Lower bound: 1.22168e+06
End of CPLEX run. Time: 5.00601 seconds

===== New CPLEX run =====
Instance: /home/yorig/tuner/mpils-tests/instances/miplib/easy/lotsize.mps
Config: /scratch/yorig/mpils-results-grid-seconds-5-no-mip-start/easy/16proc/seed-3/4_lotsize_seed-3_20260502_223218/expansion/config_param_CPXPARAM_MIP_Limits_AggForCut_10_iter_3.prm
========================

Selected objective sense:  MINIMIZE
Selected objective  name:  R1921
Selected RHS        name:  B
Selected bound      name:  BOUND
Version identifier: 22.1.2.0 | 2024-11-26 | 0edbb82fd
CPXPARAM_Threads                                 8
CPXPARAM_Parallel                                1
CPXPARAM_MIP_Cuts_Cliques                        2
CPXPARAM_MIP_Cuts_FlowCovers                     2
CPXPARAM_MIP_Cuts_Implied                        1
CPXPARAM_MIP_Limits_GomoryCand                   800
CPXPARAM_MIP_Cuts_Gomory                         -1
CPXPARAM_MIP_Cuts_PathCut                        1
CPXPARAM_MIP_Cuts_MIRCut                         2
CPXPARAM_MIP_Cuts_Disjunctive                    2
CPXPARAM_MIP_Limits_AggForCut                    10
CPXPARAM_Emphasis_MIP                            1
CPXPARAM_MIP_Strategy_BBInterval                 4
CPXPARAM_TimeLimit                               5
Tried aggregator 1 time.
MIP Presolve eliminated 595 rows and 0 columns.
MIP Presolve added 1190 rows and 0 columns.
MIP Presolve modified 10 coefficients.
Reduced MIP has 2515 rows, 2985 columns, and 7755 nonzeros.
Reduced MIP has 1195 binaries, 0 generals, 0 SOSs, and 0 indicators.
Presolve time = 0.00 sec. (4.53 ticks)
Probing fixed 0 vars, tightened 5487 bounds.
Probing time = 0.01 sec. (18.38 ticks)
Tried aggregator 2 times.
Detecting symmetries...
MIP Presolve modified 1206 coefficients.
Aggregator did 10 substitutions.
Reduced MIP has 2505 rows, 2975 columns, and 7735 nonzeros.
Reduced MIP has 1195 binaries, 0 generals, 0 SOSs, and 0 indicators.
Presolve time = 0.00 sec. (6.66 ticks)
Probing fixed 0 vars, tightened 2401 bounds.
Probing time = 0.00 sec. (6.41 ticks)
Clique table members: 190.
MIP emphasis: integer feasibility.
MIP search method: dynamic search.
Parallel mode: deterministic, using up to 8 threads.
Root relaxation solution time = 0.01 sec. (9.71 ticks)

        Nodes                                         Cuts/
   Node  Left     Objective  IInf  Best Integer    Best Bound    ItCnt     Gap

      0     0   348385.3466   472                 348385.3466      882         
      0     0   583577.4049   435                   Cuts: 726     1819         
      0     0   818459.2522   678                   Cuts: 726     2659         
*     0+    0                       1.01740e+07   818459.2522            91.96%
*     0+    0                      7973370.0000   818459.2522            89.74%
      0     0   989569.6512   668  7973370.0000     Cuts: 726     3430   87.59%
Detecting symmetries...
      0     2   989569.6512   668  7973370.0000   989569.6512     3430   87.59%
Elapsed time = 0.48 sec. (666.46 ticks, tree = 0.02 MB, solutions = 2)
    497   405  1031920.9972   561  7973370.0000   991332.6508     9646   87.57%
   1194  1085  1129594.6248   417  7973370.0000   991332.6508    18698   87.57%
   1705  1436   996309.0017   646  7973370.0000   991332.6508    23925   87.57%

Performing restart 1

Repeating presolve.
Tried aggregator 1 time.
MIP Presolve modified 1370 coefficients.
Reduced MIP has 2505 rows, 2975 columns, and 7735 nonzeros.
Reduced MIP has 1195 binaries, 0 generals, 0 SOSs, and 0 indicators.
Presolve time = 0.00 sec. (3.91 ticks)
Tried aggregator 1 time.
MIP Presolve modified 961 coefficients.
Reduced MIP has 2505 rows, 2975 columns, and 7735 nonzeros.
Reduced MIP has 1195 binaries, 0 generals, 0 SOSs, and 0 indicators.
Presolve time = 0.00 sec. (5.12 ticks)
Represolve time = 0.02 sec. (21.43 ticks)
   1706     0  1195696.2587   718  7973370.0000     Cuts: 726    31091   85.00%
   1706     0  1261686.5450   706  7973370.0000     Cuts: 726    31874   84.18%
   1706     0  1303955.8783   741  7973370.0000     Cuts: 726    32518   83.65%
   1706     2  1303955.8783   741  7973370.0000  1303955.8783    32518   83.65%
   1726    22  1319493.6592   632  7973370.0000  1304586.8790    33317   83.64%
   1746    42  1330852.0774   582  7973370.0000  1304586.8790    34286   83.64%
   1778     9  1311739.9284   675  7973370.0000  1304586.8790    32897   83.64%
   1786    75  1364518.6028   699  7973370.0000  1305168.5524    36595   83.63%
   1793    87  1406276.2164   547  7973370.0000  1306183.6710    41425   83.62%
   1979   232  1374811.0815   700  7973370.0000  1309557.5560    72583   83.58%
Elapsed time = 4.80 sec. (5949.48 ticks, tree = 0.37 MB, solutions = 2)

Clique cuts applied:  1
Cover cuts applied:  21
Implied bound cuts applied:  15
Flow cuts applied:  824
Mixed integer rounding cuts applied:  1020
Flow path cuts applied:  44
Multi commodity flow cuts applied:  18
Lift and project cuts applied:  16
Disjunctive cuts applied:  0
Cone linearizations applied:  0

Root node processing (before b&c):
  Real time             =    0.47 sec. (664.05 ticks)
Parallel b&c, 8 threads:
  Real time             =    4.53 sec. (5604.30 ticks)
  Sync time (average)   =    0.27 sec.
  Wait time (average)   =    0.00 sec.
                          ------------
Total (root+branch&cut) =    5.00 sec. (6268.35 ticks)
Gap: 83.58%
Upper bound: 7.97337e+06
Lower bound: 1.30956e+06
End of CPLEX run. Time: 5.00446 seconds
